data/solutions/recovery/degenerate/intermediate/binding/degenerate_intermediate_instance21/21.sol
Elapsed time: 0.03
Upper bound: 31727588.0
Planning weighted value: 1.01946514316e+11
C[0]=31727587.0
C[1]=31414894.0
C[2]=31353758.0
C[3]=31233125.0
C[4]=27455898.0
C[5]=27176072.0
C[6]=25638783.0
C[7]=25272701.0
C[8]=25066646.0
C[9]=24659082.0
C[10]=0.0
C[11]=0.0
y[0]=6
y[1]=0
y[2]=5
y[3]=4
y[4]=4
y[5]=4
y[6]=2
y[7]=5
y[8]=6
y[9]=0
y[10]=6
y[11]=7
y[12]=2
y[13]=9
y[14]=9
y[15]=8
y[16]=9
y[17]=6
y[18]=3
y[19]=7
y[20]=1
y[21]=8
y[22]=1
y[23]=6
y[24]=8
y[25]=8
y[26]=7
y[27]=3
y[28]=7
y[29]=4
y[30]=9
y[31]=1
y[32]=2
y[33]=5
y[34]=7
y[35]=0
y[36]=2
y[37]=2
y[38]=5
y[39]=2
y[40]=2
y[41]=2
y[42]=2
y[43]=5
y[44]=4
y[45]=4
y[46]=8
y[47]=6
y[48]=8
y[49]=1
y[50]=5
y[51]=6
y[52]=2
y[53]=6
y[54]=3
y[55]=8
y[56]=0
y[57]=3
y[58]=2
y[59]=2
y[60]=0
y[61]=3
y[62]=2
y[63]=1
y[64]=9
