data/solutions/recovery/degenerate/intermediate/binding/degenerate_intermediate_instance21/21.log

Log started (V12.6.3.0) Sun Apr 22 12:28:59 2018

New value for default parallel thread count: 1

Problem '/tmp/tmpo5Tmk0.pyomo.lp' read.
Read time = 0.01 sec. (0.58 ticks)

Problem name         : /tmp/tmpo5Tmk0.pyomo.lp
Objective sense      : Minimize
Variables            :     794  [Nneg: 1,  Binary: 780,  General Integer: 13]
Objective nonzeros   :       1
Linear constraints   :     157  [Less: 77,  Equal: 80]
  Nonzeros           :   41731
  RHS nonzeros       :      66

Variables            : Min LB: 0.000000         Max UB: 1.000000       
Objective nonzeros   : Min   : 1.000000         Max   : 1.000000       
Linear constraints   :
  Nonzeros           : Min   : 1.000000         Max   : 8298339.       
  RHS nonzeros       : Min   : 1.000000         Max   : 1.000000       
Tried aggregator 2 times.
MIP Presolve eliminated 128 rows and 693 columns.
Aggregator did 10 substitutions.
Reduced MIP has 19 rows, 91 columns, and 190 nonzeros.
Reduced MIP has 90 binaries, 1 generals, 0 SOSs, and 0 indicators.
Presolve time = 0.00 sec. (2.82 ticks)
Found incumbent of value 6.9214600e+07 after 0.00 sec. (3.86 ticks)
Probing time = 0.00 sec. (0.09 ticks)
Tried aggregator 1 time.
Reduced MIP has 19 rows, 91 columns, and 190 nonzeros.
Reduced MIP has 90 binaries, 1 generals, 0 SOSs, and 0 indicators.
Presolve time = 0.00 sec. (0.13 ticks)
Probing time = 0.00 sec. (0.09 ticks)
Clique table members: 9.
MIP emphasis: balance optimality and feasibility.
MIP search method: dynamic search.
Parallel mode: none, using 1 thread.
Root relaxation solution time = 0.00 sec. (0.15 ticks)

        Nodes                                         Cuts/
   Node  Left     Objective  IInf  Best Integer    Best Bound    ItCnt     Gap

*     0+    0                       6.92146e+07   2.67984e+07            61.28%
      0     0   2.80999e+07    16   6.92146e+07   2.80999e+07       41   59.40%
*     0+    0                       3.69745e+07   2.80999e+07            24.00%
      0     0   2.83589e+07    15   3.69745e+07      Fract: 3       50   23.30%
*     0+    0                       3.49765e+07   2.83589e+07            18.92%
      0     0   2.85488e+07    15   3.49765e+07      Fract: 1       54   18.38%
*     0+    0                       3.34547e+07   2.85488e+07            14.66%
      0     0   2.86236e+07    17   3.34547e+07      Fract: 1       61   14.44%
*     0+    0                       3.28371e+07   2.86236e+07            12.83%
      0     0   2.86238e+07    20   3.28371e+07    Cliques: 1       63   12.83%
*     0+    0                       3.26554e+07   2.86238e+07            12.35%
*     0+    0                       3.25193e+07   2.86238e+07            11.98%
*     0+    0                       3.19136e+07   2.86238e+07            10.31%

Repeating presolve.
Tried aggregator 1 time.
MIP Presolve eliminated 0 rows and 27 columns.
MIP Presolve modified 4 coefficients.
Reduced MIP has 19 rows, 64 columns, and 136 nonzeros.
Reduced MIP has 63 binaries, 1 generals, 0 SOSs, and 0 indicators.
Presolve time = 0.00 sec. (0.11 ticks)
Probing time = 0.00 sec. (0.07 ticks)
Tried aggregator 1 time.
MIP Presolve eliminated 0 rows and 1 columns.
Reduced MIP has 19 rows, 63 columns, and 134 nonzeros.
Reduced MIP has 62 binaries, 1 generals, 0 SOSs, and 0 indicators.
Presolve time = 0.00 sec. (0.09 ticks)
Probing time = 0.00 sec. (0.07 ticks)
Tried aggregator 1 time.
Reduced MIP has 19 rows, 63 columns, and 134 nonzeros.
Reduced MIP has 62 binaries, 1 generals, 0 SOSs, and 0 indicators.
Presolve time = 0.00 sec. (0.09 ticks)
Represolve time = 0.00 sec. (0.73 ticks)
Probing time = 0.00 sec. (0.07 ticks)
Clique table members: 28.
MIP emphasis: balance optimality and feasibility.
MIP search method: dynamic search.
Parallel mode: none, using 1 thread.
Root relaxation solution time = 0.00 sec. (0.13 ticks)

        Nodes                                         Cuts/
   Node  Left     Objective  IInf  Best Integer    Best Bound    ItCnt     Gap

*     0+    0                       3.19136e+07   2.86238e+07            10.31%
      0     0   2.88235e+07    16   3.19136e+07   2.88235e+07       94    9.68%
*     0+    0                       3.18177e+07   2.88235e+07             9.41%
      0     0   3.05885e+07    11   3.18177e+07       Cuts: 8      120    3.86%
      0     0   3.17276e+07     1   3.18177e+07       Cuts: 3      126    0.28%
      0     1   3.17276e+07     1   3.18177e+07   3.17276e+07      126    0.28%
Elapsed time = 0.02 sec. (10.18 ticks, tree = 0.01 MB, solutions = 9)
*     1     0      integral     0   3.17276e+07   3.17276e+07      126    0.00%

Clique cuts applied:  6
Cover cuts applied:  2
Gomory fractional cuts applied:  1

Root node processing (before b&c):
  Real time             =    0.02 sec. (10.24 ticks)
Sequential b&c:
  Real time             =    0.00 sec. (0.06 ticks)
                          ------------
Total (root+branch&cut) =    0.02 sec. (10.30 ticks)

Solution pool: 10 solutions saved.

MIP - Integer optimal solution:  Objective =  3.1727588000e+07
Solution time =    0.02 sec.  Iterations = 126  Nodes = 2
Deterministic time = 10.30 ticks  (629.52 ticks/sec)


Incumbent solution written to file '/tmp/tmp8IO2Wa.cplex.sol'.
